23 200
0 0 70 70 0 0 634 0 0 0
1 7 86 40 22 34 201 10 0 110
2 67 90 44 6 32 143 10 0 137
3 63 103 44 12 42 157 10 0 3
4 36 108 30 18 77 145 10 0 44
5 5 116 22 32 106 199 10 0 9
6 117 116 13 5 73 200 10 0 80
7 25 107 25 13 220 358 0 0 201
8 182 89 24 15 263 370 10 0 175
9 39 47 83 1 277 388 0 0 208
10 37 37 73 33 279 423 10 0 96
11 108 54 78 11 458 607 10 0 97
12 110 34 72 -22 421 588 10 7 0
13 137 104 32 -6 100 200 10 67 0
14 3 120 22 -12 69 207 10 63 0
15 44 113 35 -18 55 136 10 36 0
16 9 61 57 -32 334 446 10 5 0
17 80 92 22 -5 140 270 10 117 0
18 201 107 25 -13 220 358 10 25 0
19 175 60 54 -15 193 316 10 182 0
20 208 47 83 -1 277 388 10 39 0
21 96 18 70 -33 360 452 10 37 0
22 97 58 80 -11 419 531 10 108 0

